Set parameter TSPort to value 51199
Set parameter TokenServer to value "open-license1.lanl.gov"
Set parameter TimeLimit to value 1024
Set parameter Threads to value 1
Gurobi Optimizer version 10.0.3 build v10.0.3rc0 (linux64)

CPU model: Intel(R) Xeon(R) CPU E5-2695 v4 @ 2.10GHz, instruction set [SSE2|AVX|AVX2]
Thread count: 36 physical cores, 72 logical processors, using up to 1 threads

Optimize a model with 0 rows, 1532 columns and 0 nonzeros
Model fingerprint: 0x0eac3bf4
Model has 6829 quadratic objective terms
Variable types: 0 continuous, 1532 integer (1532 binary)
Coefficient statistics:
  Matrix range     [0e+00, 0e+00]
  Objective range  [2e+00, 3e+01]
  QObjective range [8e+00, 8e+00]
  Bounds range     [1e+00, 1e+00]
  RHS range        [0e+00, 0e+00]
Found heuristic solution: objective 0.0000000
Found heuristic solution: objective -2600.000000
Found heuristic solution: objective -9112.000000
Found heuristic solution: objective -9186.000000
Presolve time: 0.29s
Presolved: 6829 rows, 8361 columns, 20487 nonzeros
Variable types: 0 continuous, 8361 integer (8361 binary)

Root relaxation: objective -1.278000e+04, 2185 iterations, 0.04 seconds (0.01 work units)

    Nodes    |    Current Node    |     Objective Bounds      |     Work
 Expl Unexpl |  Obj  Depth IntInf | Incumbent    BestBd   Gap | It/Node Time

     0     0 -12780.000    0 1532 -9186.0000 -12780.000  39.1%     -    0s
     0     0 -11852.000    0 1998 -9186.0000 -11852.000  29.0%     -    0s
     0     0 -11801.000    0 2030 -9186.0000 -11801.000  28.5%     -    1s
     0     0 -11797.000    0 2035 -9186.0000 -11797.000  28.4%     -    1s
     0     0 -11539.542    0 2261 -9186.0000 -11539.542  25.6%     -    1s
     0     0 -11539.542    0 2233 -9186.0000 -11539.542  25.6%     -    1s
     0     2 -11539.375    0 2220 -9186.0000 -11539.375  25.6%     -    2s
   176   178 -10808.500   88 2735 -9186.0000 -11525.042  25.5%   114    5s
   600   602 -9554.0000  301 2871 -9186.0000 -11525.042  25.5%  84.2   10s
   810   784 -10303.000  161 2553 -9186.0000 -11104.167  20.9%  72.8   16s
   818   789 -9477.0000  318 3299 -9186.0000 -10764.568  17.2%  72.1   29s
   819   790 -9612.5000  287 3477 -9186.0000 -10726.789  16.8%  72.0   35s
   828   796 -10546.572   75 4028 -9186.0000 -10546.572  14.8%  71.2   62s
   829   796 -10282.000  164 4355 -9186.0000 -10520.170  14.5%  71.1   76s
   830   797 -10511.978  105 4445 -9186.0000 -10511.978  14.4%  71.1   81s
   832   798 -10508.401   38 4555 -9186.0000 -10508.401  14.4%  70.9   85s
   840   804 -9905.0000  225 4906 -9186.0000 -10382.879  13.0%  70.2  121s
   841   804 -9398.6667  336 5206 -9186.0000 -10354.354  12.7%  70.1  137s
   842   805 -10348.279  133 5325 -9186.0000 -10348.279  12.7%  70.0  143s
   843   806 -9874.0000  230 5377 -9186.0000 -10346.442  12.6%  70.0  147s
   845   807 -10345.031   53 5421 -9186.0000 -10345.031  12.6%  69.8  150s
   852   812 -9394.6667  338 5813 -9186.0000 -10244.151  11.5%  69.2  198s
   853   812 -9199.6667  393 6045 -9186.0000 -10223.508  11.3%  69.1  225s
   854   813 -10186.000  178 6117 -9186.0000 -10219.611  11.3%  69.1  235s
   856   814 -9924.0000  222 6222 -9186.0000 -10218.334  11.2%  68.9  240s
   861   818 -10218.060   38 6335 -9186.0000 -10218.060  11.2%  68.5  245s
   862   818 -9883.0000  228 6557 -9186.0000 -10151.900  10.5%  68.4  294s
   863   819 -9284.6667  368 6742 -9186.0000 -10140.566  10.4%  68.3  317s
   864   820 -10137.560   81 6758 -9186.0000 -10137.560  10.4%  68.3  328s
   865   820 -9950.0000  217 6789 -9186.0000 -10137.025  10.4%  68.2  332s
   866   821 -10136.491   29 6838 -9186.0000 -10136.491  10.3%  68.1  335s
   870   824 -10136.293  109 6890 -9186.0000 -10136.293  10.3%  67.8  340s
   871   824 -10105.999   10 6815 -9186.0000 -10105.999  10.0%  67.7  379s
   872   825 -9586.5000  292 6864 -9186.0000 -10099.762  9.95%  67.6  400s
   873   826 -9363.6667  347 6931 -9186.0000 -10098.438  9.93%  67.6  406s
   874   826 -9765.5000  255 6900 -9186.0000 -10098.041  9.93%  67.5  410s
   879   830 -9593.0000  291 6965 -9186.0000 -10097.894  9.93%  67.1  416s
   880   830 -9632.5000  281 6902 -9186.0000 -10081.997  9.75%  67.0  446s
   881   831 -10078.230  134 6992 -9186.0000 -10078.230  9.71%  66.9  459s
   882   832 -10057.500  199 7013 -9186.0000 -10077.462  9.70%  66.9  466s
   884   833 -9741.5000  259 7060 -9186.0000 -10077.069  9.70%  66.7  471s
   888   836 -9235.6667  384 6991 -9186.0000 -10063.947  9.56%  66.4  502s
   889   836 -10061.017  184 7023 -9186.0000 -10061.017  9.53%  66.3  517s
   890   837 -10060.428   85 7057 -9186.0000 -10060.428  9.52%  66.3  521s
   894   840 -10060.215  191 7106 -9186.0000 -10060.215  9.52%  66.0  525s
   896   841 -9669.5000  272 7040 -9186.0000 -10047.012  9.37%  65.8  553s
   897   842 -10043.500  201 7091 -9186.0000 -10044.271  9.34%  65.7  567s
   898   842 -10043.847  103 7123 -9186.0000 -10043.847  9.34%  65.7  570s
   902   845 -10043.676   99 7165 -9186.0000 -10043.676  9.34%  65.4  575s
   903   846 -9445.0000  325 7116 -9186.0000 -10031.575  9.21%  65.3  605s
   904   846 -10029.058  156 7188 -9186.0000 -10029.058  9.18%  65.2  617s
   905   847 -9805.0000  248 7207 -9186.0000 -10028.587  9.17%  65.2  621s
   909   850 -10028.416  137 7253 -9186.0000 -10028.416  9.17%  64.9  626s
   910   850 -10016.229  161 7177 -9186.0000 -10016.229  9.04%  64.8  657s
   911   851 -10014.409  132 7207 -9186.0000 -10014.409  9.02%  64.7  666s
   912   852 -10013.988  189 7261 -9186.0000 -10013.988  9.01%  64.7  670s
   917   855 -10006.913  149 7193 -9186.0000 -10006.913  8.94%  64.3  697s
   918   856 -9477.0000  318 7240 -9186.0000 -10004.774  8.91%  64.2  708s
   919   856 -9612.5000  287 7248 -9186.0000 -10004.444  8.91%  64.2  712s
   921   858 -10004.223   30 7270 -9186.0000 -10004.223  8.91%  64.0  715s
   925   860 -9434.0000  327 7218 -9186.0000 -9998.0587  8.84%  63.8  738s
   926   861 -9996.5890   80 7284 -9186.0000 -9996.5890  8.82%  63.7  747s
   927   862 -9996.2289  161 7310 -9186.0000 -9996.2289  8.82%  63.6  750s
   932   865 -9989.3369   38 7261 -9186.0000 -9989.3369  8.75%  63.3  776s
   933   866 -9477.0000  318 7301 -9186.0000 -9987.8348  8.73%  63.2  785s
   935   867 -9354.6667  348 7336 -9186.0000 -9987.4021  8.72%  63.1  790s
   940   870 -9905.0000  225 7326 -9186.0000 -9981.1281  8.66%  62.7  814s
   941   871 -9398.6667  336 7361 -9186.0000 -9979.9345  8.64%  62.7  822s
   942   872 -9979.5970  133 7372 -9186.0000 -9979.5970  8.64%  62.6  825s
   946   874 -9423.0000  330 7318 -9186.0000 -9973.7048  8.58%  62.3  853s
   947   875 -9460.0000  321 7355 -9186.0000 -9972.2109  8.56%  62.3  864s
   948   876 -9971.9082  138 7396 -9186.0000 -9971.9082  8.56%  62.2  867s
   950   877 -9404.3333  334 7436 -9186.0000 -9971.7977  8.55%  62.1  870s
   953   879 -9199.6667  393 7338 -9186.0000 -9968.0788  8.51%  61.9  888s
   954   880 -9967.0748  178 7404 -9186.0000 -9967.0748  8.50%  61.8  895s
   955   880 -9608.5000  288 7411 -9186.0000 -9966.7033  8.50%  61.8  900s
   960   884 -9640.5000  279 7388 -9186.0000 -9963.4138  8.46%  61.4  922s
   961   884 -9962.6397   38 7432 -9186.0000 -9962.6397  8.45%  61.4  928s
   962   885 -9883.0000  228 7437 -9186.0000 -9962.4687  8.45%  61.3  931s
   969   890 -9962.3844  151 7467 -9186.0000 -9962.3844  8.45%  60.9  935s
   977   896 -9923.0000  222 4144 -9186.0000 -9962.3844  8.45%  1041  959s

Cutting planes:
  Gomory: 52
  MIR: 262
  Flow cover: 2238
  Zero half: 882
  Mod-K: 25
  RLT: 258
  BQP: 422

Explored 977 nodes (1176352 simplex iterations) in 1024.00 seconds (1304.00 work units)
Thread count was 1 (of 72 available processors)

Solution count 4: -9186 -9112 -2600 0 

Time limit reached
Best objective -9.186000000000e+03, best bound -9.962000000000e+03, gap 8.4476%

User-callback calls 9842, time in user-callback 0.05 sec

BQP_SOLUTION, 1532, 6829, -3235.000000, 1024.001358, -1, 1, 1, 1, -1, -1, 1, -1, 1, 1, -1, 1, 1, -1, -1, -1, 1, 1, -1, 1, 1, -1, -1, 1, 1, 1, -1, 1, -1, 1, -1, 1, 1, 1, -1, 1, 1, -1, -1, -1, -1, 1, 1, -1, -1, -1, 1, -1, 1, 1, -1, -1, -1, -1, -1, 1, -1, 1, -1, 1, 1, 1, -1, -1, 1, 1, 1, -1, 1, 1, -1, -1, 1, 1, -1, -1, 1, 1, -1, -1, 1, 1, 1, -1, -1, 1, -1, -1, -1, 1, 1, -1, -1, -1, 1, 1, 1, -1, 1, -1, 1, -1, -1, 1, -1, 1, -1, -1, -1, -1, -1, 1, 1, 1, 1, -1, -1, -1, -1, -1, -1, 1, -1, 1, 1, -1, -1, -1, -1, 1, -1, -1, -1, 1, -1, -1, -1, -1, -1, -1, 1, 1, -1, -1, 1, 1, -1, -1, 1, -1, -1, -1, -1, 1, -1, -1, 1, 1, 1, -1, -1, 1, 1, -1, -1, -1, 1, -1, 1, -1, 1, -1, 1, 1, -1, 1, 1, 1, -1, 1, 1, -1, 1, -1, -1, 1, -1, -1, -1, -1, 1, -1, 1, -1, 1, -1, -1, 1, -1, -1, -1, 1, 1, -1, 1, 1, -1, -1, -1, -1, 1, -1, -1, 1, 1, -1, -1, 1, -1, -1, -1, 1, 1, 1, 1, 1, -1, -1, -1, 1, 1, 1, -1, 1, -1, -1, -1, 1, 1, 1, -1, 1, -1, -1, -1, 1, -1, 1, -1, 1, -1, -1, -1, 1, 1, -1, -1, 1, -1, -1, -1, 1, 1, -1, 1, 1, -1, -1, -1, 1, -1, -1, 1, 1, -1, -1, 1, 1, 1, 1, -1, 1, -1, -1, 1, 1, -1, -1, 1, 1, -1, 1, 1, 1, -1, -1, 1, -1, -1, 1, 1, -1, 1, -1, 1, -1, -1, 1, 1, -1, 1, 1, 1, -1, -1, 1, -1, 1, -1, -1, 1, -1, -1, -1, 1, -1, 1, 1, 1, -1, -1, 1, 1, -1, 1, 1, 1, -1, -1, -1, 1, -1, -1, 1, 1, -1, -1, -1, 1, -1, 1, 1, 1, -1, 1, -1, 1, -1, 1, -1, 1, 1, -1, -1, -1, -1, 1, 1, 1, 1, 1, -1, 1, -1, -1, 1, 1, 1, -1, -1, 1, -1, 1, 1, 1, -1, -1, -1, 1, -1, -1, 1, 1, -1, 1, -1, -1, -1, 1, 1, 1, 1, -1, -1, 1, -1, 1, 1, 1, -1, 1, 1, -1, -1, -1, 1, 1, 1, -1, -1, -1, -1, 1, 1, 1, 1, 1, 1, -1, 1, -1, 1, 1, -1, -1, 1, -1, -1, -1, 1, 1, 1, -1, 1, -1, -1, -1, -1, 1, 1, -1, 1, -1, 1, -1, -1, 1, 1, -1, 1, 1, -1, -1, -1, 1, 1, 1, -1, 1, -1, 1, 1, -1, 1, 1, 1, -1, 1, -1, 1, 1, -1, -1, 1, 1, -1, -1, 1, 1, 1, -1, 1, -1, 1, -1, 1, 1, 1, -1, 1, 1, 1, -1, -1, 1, 1, -1, 1, 1, -1, -1, -1, -1, 1, -1, 1, 1, 1, -1, 1, 1, 1, -1, 1, 1, 1, 1, -1, 1, -1, -1, 1, 1, 1, 1, -1, 1, -1, -1, 1, 1, 1, -1, -1, -1, 1, -1, -1, 1, 1, 1, -1, 1, 1, -1, -1, 1, 1, 1, 1, -1, 1, -1, -1, -1, 1, 1, -1, -1, -1, -1, 1, 1, 1, 1, -1, -1, -1, -1, -1, 1, 1, 1, -1, 1, -1, -1, -1, -1, 1, -1, -1, -1, -1, -1, 1, -1, 1, 1, 1, -1, -1, -1, 1, -1, 1, 1, -1, -1, -1, -1, 1, -1, 1, 1, 1, -1, -1, 1, -1, -1, 1, 1, 1, 1, -1, -1, 1, -1, 1, 1, 1, -1, -1, 1, 1, -1, 1, 1, 1, 1, -1, -1, 1, -1, -1, 1, 1, 1, 1, 1, 1, -1, -1, 1, 1, -1, 1, 1, 1, 1, -1, 1, -1, 1, 1, 1, -1, 1, -1, 1, 1, 1, -1, 1, 1, -1, 1, 1, 1, 1, 1, 1, -1, -1, 1, 1, 1, -1, 1, 1, -1, -1, 1, -1, 1, 1, -1, 1, -1, -1, 1, -1, 1, 1, 1, 1, -1, -1, 1, 1, 1, 1, 1, 1, 1, -1, 1, -1, -1, -1, -1, 1, 1, -1, 1, -1, 1, 1, -1, -1, 1, -1, 1, 1, -1, 1, -1, -1, 1, -1, 1, -1, -1, 1, -1, 1, 1, -1, 1, 1, -1, 1, -1, 1, 1, -1, 1, -1, 1, -1, -1, 1, 1, -1, 1, 1, 1, 1, -1, 1, 1, -1, 1, -1, 1, -1, 1, -1, 1, 1, -1, 1, 1, 1, -1, 1, 1, -1, 1, 1, 1, 1, -1, -1, 1, -1, 1, 1, 1, 1, -1, 1, -1, 1, 1, 1, 1, -1, -1, 1, -1, 1, 1, -1, 1, -1, -1, -1, -1, 1, -1, -1, 1, 1, -1, 1, -1, -1, -1, 1, -1, 1, -1, 1, 1, 1, 1, -1, 1, 1, -1, 1, -1, 1, -1, -1, 1, -1, -1, -1, 1, -1, -1, -1, -1, 1, -1, 1, 1, 1, -1, -1, -1, -1, -1, 1, -1, 1, 1, -1, -1, -1, 1, -1, -1, 1, -1, -1, -1, -1, -1, 1, -1, 1, -1, 1, -1, -1, 1, 1, -1, 1, -1, -1, 1, -1, 1, 1, -1, -1, -1, -1, -1, -1, -1, -1, 1, 1, -1, -1, -1, -1, 1, -1, 1, -1, -1, -1, -1, -1, -1, -1, 1, 1, -1, 1, 1, -1, -1, -1, 1, 1, -1, -1, -1, -1, 1, -1, 1, -1, 1, -1, 1, 1, -1, -1, 1, -1, 1, -1, 1, 1, -1, -1, 1, -1, 1, -1, 1, -1, -1, 1, -1, 1, -1, 1, 1, -1, -1, 1, -1, -1, -1, 1, -1, 1, 1, 1, 1, -1, 1, 1, 1, 1, -1, 1, 1, 1, 1, -1, 1, -1, -1, 1, 1, -1, -1, -1, 1, -1, 1, 1, -1, 1, 1, 1, 1, 1, -1, 1, 1, 1, 1, 1, 1, -1, 1, -1, 1, 1, 1, 1, 1, -1, -1, 1, -1, 1, 1, -1, 1, 1, 1, 1, 1, -1, 1, 1, 1, 1, 1, 1, -1, 1, 1, 1, 1, 1, 1, 1, -1, 1, 1, 1, -1, 1, 1, -1, 1, 1, -1, 1, 1, -1, 1, -1, 1, 1, 1, 1, 1, 1, 1, 1, 1, 1, 1, 1, -1, 1, 1, -1, 1, -1, 1, 1, 1, 1, 1, 1, 1, 1, -1, 1, 1, -1, 1, -1, 1, -1, 1, 1, 1, -1, 1, -1, 1, -1, 1, 1, 1, 1, 1, 1, -1, 1, 1, 1, 1, -1, 1, 1, -1, -1, 1, 1, 1, 1, 1, -1, 1, -1, 1, 1, 1, -1, 1, -1, 1, 1, -1, 1, 1, -1, 1, -1, -1, -1, 1, 1, 1, -1, 1, -1, -1, 1, -1, 1, 1, 1, -1, 1, 1, 1, 1, 1, 1, -1, -1, 1, -1, 1, -1, 1, 1, -1, 1, -1, 1, 1, -1, 1, 1, -1, -1, -1, -1, 1, 1, 1, -1, 1, -1, -1, -1, 1, -1, 1, -1, 1, -1, 1, -1, -1, 1, 1, 1, 1, -1, -1, -1, 1, 1, 1, -1, -1, -1, 1, -1, -1, -1, 1, -1, 1, -1, 1, -1, 1, 1, -1, -1, 1, -1, 1, -1, 1, -1, 1, -1, 1, -1, 1, -1, -1, 1, -1, 1, -1, 1, -1, -1, -1, 1, -1, -1, -1, 1, 1, -1, -1, 1, -1, -1, 1, -1, 1, -1, 1, -1, 1, 1, -1, -1, 1, 1, -1, -1, -1, -1, 1, 1, 1, -1, 1, 1, -1, 1, -1, -1, 1, -1, 1, 1, -1, -1, 1, -1, 1, 1, 1, -1, -1, -1, 1, -1, 1, 1, 1, 1, -1, 1, 1, -1, 1, 1, 1, 1, -1, -1, 1, -1, 1, 1, 1, 1, -1, 1, 1, -1, 1, 1, 1, 1, -1, 1, 1, -1, -1, 1, 1, -1, 1, 1, -1, -1, -1, 1, 1, -1, 1, 1, -1, -1, 1, 1, 1, -1, -1, 1, 1, -1, 1, 1, 1, -1, 1, 1, -1, -1, 1, 1, 1, -1, -1, 1, 1, 1, -1, 1, 1, 1, -1, 1, -1, -1, 1, 1, 1, 1, 1, 1, 1, -1, -1, 1, 1, 1, -1, 1, 1, -1, -1, 1, 1, 1, -1, 1, 1, -1, -1, 1, 1, -1, 1, 1, 1, -1, -1, 1, 1, 1, 1, -1, 1, -1, -1, -1, 1, 1, 1, -1, 1, -1, -1, -1, 1, -1, -1, 1, 1, -1, 1, -1, 1, 1, 1, 1, 1, -1, -1, -1, 1, -1, 1, -1, 1, -1, -1, -1, 1, 1, 1, -1, 1, -1, -1, -1, -1, -1, 1, -1, 1, 1, -1, -1, 1, 1, 1, -1, 1, -1, -1, -1, -1, 1, 1, -1, 1, 1, -1, 1, -1, 1, 1, -1, 1, -1, 1, -1, -1, 1, -1, 1, 1, 1, -1, -1, 1, 1, -1, 1, 1, 1, -1, -1, 1, -1, -1, 1, -1, 1, 1, -1, 1, 1, 1, -1, 1, 1, -1, 1
BQP_DATA, 1532, 6829, -3235.000000, -4011.000000, -9186.000000, -9962.000000, 1024.001358, 3459, 977
